(set-logic QF_S)
(declare-fun var0 () String)
(declare-fun var1 () String)
(declare-fun var2 () String)
(declare-fun var3 () String)
(declare-fun var4 () String)
(declare-fun var5 () String)
(declare-fun var6 () String)
(declare-fun var7 () String)
(declare-fun var8 () String)
(declare-fun var9 () String)
(declare-fun var10 () String)
(declare-fun var11 () String)
(declare-fun var12 () String)
(declare-fun var13 () String)
(declare-fun var14 () String)
(declare-fun var15 () String)
(declare-fun var16 () String)
(declare-fun var17 () String)
(declare-fun var18 () String)
(declare-fun var19 () String)
(declare-fun var20 () String)
(declare-fun var21 () String)
(declare-fun var22 () String)
(declare-fun var23 () String)
(declare-fun var24 () String)
(declare-fun var25 () String)
(declare-fun var26 () String)
(declare-fun var27 () String)
(declare-fun var28 () String)
(declare-fun var29 () String)
(declare-fun var30 () String)
(declare-fun var31 () String)
(declare-fun var32 () String)
(declare-fun var33 () String)
(declare-fun var34 () String)
(declare-fun var35 () String)
(declare-fun var36 () String)
(declare-fun var37 () String)
(declare-fun var38 () String)
(declare-fun var39 () String)
(declare-fun var40 () String)
(declare-fun var41 () String)
(declare-fun var42 () String)
(declare-fun var43 () String)
(declare-fun var44 () String)
(declare-fun var45 () String)
(declare-fun var46 () String)
(declare-fun var47 () String)
(declare-fun var48 () String)
(declare-fun var49 () String)
(declare-fun var50 () String)
(declare-fun var51 () String)
(declare-fun var52 () String)
(declare-fun var53 () String)
(declare-fun var54 () String)
(declare-fun var55 () String)
(declare-fun var56 () String)
(declare-fun var57 () String)
(declare-fun var58 () String)
(declare-fun var59 () String)
(declare-fun var60 () String)
(assert (= var0 (Concat var1 var2)))
(assert (= var2 (Concat var3 var4)))
(assert (= var4 (Concat var5 var6)))
(assert (= var6 (Concat var7 var8)))
(assert (= var8 (Concat var9 var10)))
(assert (= var10 (Concat var11 var12)))
(assert (= var12 (Concat var13 var14)))
(assert (= var14 (Concat var15 var16)))
(assert (= var16 (Concat var17 var18)))
(assert (= var18 (Concat var19 var20)))
(assert (= var20 (Concat var21 var22)))
(assert (= var22 (Concat var23 var24)))
(assert (= var24 (Concat var25 var26)))
(assert (= var26 (Concat var27 var28)))
(assert (= var28 (Concat var29 var30)))
(assert (= var30 (Concat var31 var32)))
(assert (= var32 (Concat var33 var34)))
(assert (= var34 (Concat var35 var36)))
(assert (= var36 (Concat var37 var38)))
(assert (= var38 (Concat var39 var40)))
(assert (= var40 (Concat var41 var42)))
(assert (= var42 (Concat var43 var44)))
(assert (= var44 (Concat var45 var46)))
(assert (= var46 (Concat var47 var48)))
(assert (= var48 (Concat var49 var50)))
(assert (= var50 (Concat var51 var52)))
(assert (= var52 (Concat var53 var54)))
(assert (= var54 (Concat var55 var56)))
(assert (= var56 (Concat var57 var58)))
(assert (= var58 (Concat var59 var60)))
(assert (= var0 "solution"))
(assert (= "4" (CharAt var41 380)))
(assert (= "(" (CharAt var8 204)))
(assert (= "y" (CharAt var54 163)))
(assert (= "3" (CharAt var47 682)))
(assert (= "C" (CharAt var34 328)))
(assert (= "3" (CharAt var14 572)))
(assert (= "t" (CharAt var0 236)))
(assert (= "+" (CharAt var5 877)))
(assert (= "\"" (CharAt var31 723)))
(assert (= "?" (CharAt var4 112)))
(assert (= "1" (CharAt var52 101)))
(assert (= "Q" (CharAt var7 908)))
(assert (= "!" (CharAt var8 593)))
(assert (= "h" (CharAt var41 348)))
(assert (= "t" (CharAt var24 715)))
(assert (= "&" (CharAt var42 244)))
(assert (= "/" (CharAt var42 359)))
(assert (= "h" (CharAt var32 802)))
(assert (= "^" (CharAt var45 862)))
(assert (= "s" (CharAt var33 989)))
(assert (= "K" (CharAt var37 179)))
(assert (= "e" (CharAt var17 40)))
(assert (= "Q" (CharAt var52 259)))
(assert (= "|" (CharAt var11 485)))
(assert (= "5" (CharAt var51 81)))
(assert (= "X" (CharAt var35 82)))
(assert (= "!" (CharAt var49 338)))
(assert (= "D" (CharAt var48 154)))
(assert (= "U" (CharAt var49 702)))
(assert (= "V" (CharAt var4 810)))
(assert (= "9" (CharAt var32 697)))
(assert (= ">" (CharAt var19 338)))
(assert (= "k" (CharAt var19 330)))
(assert (= "=" (CharAt var34 589)))
(assert (= "\"" (CharAt var50 980)))
(assert (= "i" (CharAt var47 117)))
(assert (= ":" (CharAt var24 785)))
(assert (= "b" (CharAt var46 633)))
(assert (= "/" (CharAt var40 806)))
(assert (= ":" (CharAt var1 341)))
(assert (= "W" (CharAt var24 34)))
(assert (= "M" (CharAt var12 582)))
(assert (= "<" (CharAt var36 105)))
(assert (= "h" (CharAt var41 526)))
(assert (= "_" (CharAt var29 571)))
(assert (= "Q" (CharAt var46 734)))
(assert (= "g" (CharAt var53 294)))
(assert (= "n" (CharAt var23 784)))
(assert (= "k" (CharAt var23 763)))
(assert (= "G" (CharAt var1 752)))
(assert (= "o" (CharAt var29 399)))
(assert (= "\\" (CharAt var36 782)))
(assert (= "Q" (CharAt var55 455)))
(assert (= "5" (CharAt var14 828)))
(assert (= "L" (CharAt var30 854)))
(assert (= "l" (CharAt var55 844)))
(assert (= "Y" (CharAt var40 261)))
(assert (= "p" (CharAt var33 451)))
(assert (= ")" (CharAt var52 579)))
(assert (= "&" (CharAt var51 785)))
(assert (= "N" (CharAt var1 522)))
(assert (= ")" (CharAt var56 393)))
(assert (= "Z" (CharAt var30 131)))
(assert (= "d" (CharAt var7 397)))
(assert (= "(" (CharAt var35 868)))
(assert (= "r" (CharAt var2 632)))
(assert (= "?" (CharAt var54 595)))
(assert (= "?" (CharAt var6 257)))
(assert (= "P" (CharAt var40 430)))
(assert (= "B" (CharAt var12 666)))
(assert (= "+" (CharAt var50 694)))
(assert (= "%" (CharAt var35 561)))
(assert (= "{" (CharAt var58 244)))
(assert (= "\"" (CharAt var49 39)))
(assert (= "Y" (CharAt var34 296)))
(assert (= "[" (CharAt var58 269)))
(assert (= "s" (CharAt var39 767)))
(assert (= "$" (CharAt var29 187)))
(assert (= "7" (CharAt var14 711)))
(assert (= "R" (CharAt var59 58)))
(assert (= "}" (CharAt var59 875)))
(assert (= ":" (CharAt var15 145)))
(assert (= "*" (CharAt var12 21)))
(assert (= "%" (CharAt var2 167)))
(assert (= "f" (CharAt var14 703)))
(assert (= "y" (CharAt var35 302)))
(assert (= "N" (CharAt var1 678)))
(assert (= "8" (CharAt var26 300)))
(assert (= "|" (CharAt var0 910)))
(assert (= "g" (CharAt var4 613)))
(assert (= "F" (CharAt var11 319)))
(assert (= "V" (CharAt var40 461)))
(assert (= "W" (CharAt var23 794)))
(assert (= "3" (CharAt var47 540)))
(assert (= "p" (CharAt var43 531)))
(assert (= "T" (CharAt var58 609)))
(assert (= "&" (CharAt var21 560)))
(assert (= "n" (CharAt var50 972)))
(assert (= "^" (CharAt var5 629)))
(assert (= "#" (CharAt var46 202)))
(assert (= "z" (CharAt var4 195)))
(assert (= "2" (CharAt var42 112)))
(assert (= "$" (CharAt var56 628)))
(assert (= "L" (CharAt var31 958)))
(assert (= "q" (CharAt var3 33)))
(assert (= "B" (CharAt var1 131)))
(assert (= "`" (CharAt var11 196)))
(assert (= "N" (CharAt var27 410)))
(assert (= "G" (CharAt var7 779)))
(assert (= "1" (CharAt var56 942)))
(assert (= "n" (CharAt var29 142)))
(assert (= "b" (CharAt var24 756)))
(assert (= "G" (CharAt var52 977)))
(assert (= "h" (CharAt var6 908)))
(assert (= "t" (CharAt var33 809)))
(assert (= "c" (CharAt var56 742)))
(assert (= "\\" (CharAt var0 487)))
(assert (= "6" (CharAt var7 419)))
(assert (= "N" (CharAt var28 141)))
(assert (= "c" (CharAt var20 748)))
(assert (= "J" (CharAt var30 821)))
(assert (= "." (CharAt var11 324)))
(assert (= "i" (CharAt var23 444)))
(assert (= "d" (CharAt var33 593)))
(assert (= "k" (CharAt var32 163)))
(assert (= "v" (CharAt var37 938)))
(assert (= "V" (CharAt var48 700)))
(assert (= "F" (CharAt var48 75)))
(assert (= "W" (CharAt var56 220)))
(assert (= "f" (CharAt var12 54)))
(assert (= "%" (CharAt var41 534)))
(assert (= "@" (CharAt var32 838)))
(assert (= "q" (CharAt var12 779)))
(assert (= "p" (CharAt var24 481)))
(assert (= "I" (CharAt var36 502)))
(assert (= ";" (CharAt var57 969)))
(assert (= "4" (CharAt var16 874)))
(assert (= "O" (CharAt var46 152)))
(assert (= "c" (CharAt var38 3)))
(assert (= "%" (CharAt var59 696)))
(assert (= ":" (CharAt var46 226)))
(assert (= "b" (CharAt var23 663)))
(assert (= "T" (CharAt var0 386)))
(assert (= "~" (CharAt var6 5)))
(assert (= "s" (CharAt var6 276)))
(assert (= "T" (CharAt var2 602)))
(assert (= "A" (CharAt var44 205)))
(assert (= "W" (CharAt var26 393)))
(assert (= "*" (CharAt var21 199)))
(assert (= "W" (CharAt var40 237)))
(assert (= ")" (CharAt var47 637)))
(assert (= "}" (CharAt var1 720)))
(assert (= "P" (CharAt var47 42)))
(assert (= "m" (CharAt var11 313)))
(assert (= "|" (CharAt var54 954)))
(assert (= "J" (CharAt var16 872)))
(assert (= "K" (CharAt var28 703)))
(assert (= "l" (CharAt var9 316)))
(assert (= "W" (CharAt var2 981)))
(assert (= "s" (CharAt var23 252)))
(assert (= "M" (CharAt var22 985)))
(assert (= "(" (CharAt var34 307)))
(assert (= "W" (CharAt var50 10)))
(assert (= ";" (CharAt var5 59)))
(assert (= "v" (CharAt var47 203)))
(assert (= "$" (CharAt var4 53)))
(assert (= "B" (CharAt var35 703)))
(assert (= "U" (CharAt var27 775)))
(assert (= "m" (CharAt var16 318)))
(assert (= "M" (CharAt var0 902)))
(assert (= "=" (CharAt var34 258)))
(assert (= "\\" (CharAt var53 372)))
(assert (= "T" (CharAt var3 948)))
(assert (= "l" (CharAt var10 506)))
(assert (= "=" (CharAt var1 209)))
(assert (= "}" (CharAt var34 704)))
(assert (= "]" (CharAt var36 1)))
(assert (= "+" (CharAt var21 270)))
(assert (= "l" (CharAt var29 214)))
(assert (= "S" (CharAt var19 636)))
(assert (= "(" (CharAt var39 307)))
(assert (= "4" (CharAt var28 30)))
(assert (= "*" (CharAt var54 793)))
(assert (= "=" (CharAt var40 995)))
(assert (= "]" (CharAt var17 90)))
(assert (= "~" (CharAt var16 160)))
(assert (= "N" (CharAt var52 215)))
(assert (= "a" (CharAt var29 587)))
(assert (= "8" (CharAt var56 412)))
(assert (= "=" (CharAt var49 121)))
(assert (= "E" (CharAt var34 365)))
(assert (= "\\" (CharAt var4 421)))
(assert (= "H" (CharAt var53 653)))
(assert (= "!" (CharAt var23 775)))
(assert (= "#" (CharAt var27 79)))
(assert (= "q" (CharAt var6 969)))
(assert (= "+" (CharAt var15 861)))
(assert (= "n" (CharAt var52 831)))
(assert (= "E" (CharAt var0 69)))
(assert (= "." (CharAt var42 449)))
(assert (= "<" (CharAt var27 137)))
(assert (= "z" (CharAt var45 972)))
(assert (= "l" (CharAt var33 821)))
(assert (= "7" (CharAt var43 807)))
(assert (= "q" (CharAt var32 243)))
(assert (= "f" (CharAt var24 70)))
(assert (= "{" (CharAt var17 930)))
(assert (= "v" (CharAt var31 758)))
(assert (= "#" (CharAt var2 789)))
(assert (= "}" (CharAt var19 764)))
(assert (= "7" (CharAt var36 477)))
(assert (= "[" (CharAt var36 962)))
(assert (= "6" (CharAt var6 822)))
(assert (= "[" (CharAt var51 900)))
(assert (= "C" (CharAt var2 202)))
(assert (= "?" (CharAt var23 742)))
(assert (= "'" (CharAt var53 271)))
(assert (= "H" (CharAt var8 461)))
(assert (= "}" (CharAt var15 643)))
(assert (= "V" (CharAt var45 597)))
(assert (= "q" (CharAt var31 965)))
(assert (= "'" (CharAt var10 431)))
(assert (= "5" (CharAt var8 666)))
(assert (= "E" (CharAt var30 627)))
(assert (= "x" (CharAt var49 369)))
(assert (= "R" (CharAt var27 233)))
(assert (= "X" (CharAt var47 673)))
(assert (= ":" (CharAt var0 255)))
(assert (= "f" (CharAt var12 792)))
(assert (= "r" (CharAt var31 444)))
(assert (= "7" (CharAt var39 783)))
(assert (= "/" (CharAt var2 992)))
(assert (= "Z" (CharAt var4 754)))
(assert (= "V" (CharAt var18 181)))
(assert (= "s" (CharAt var30 87)))
(assert (= "^" (CharAt var47 350)))
(assert (= "$" (CharAt var38 103)))
(assert (= "R" (CharAt var41 642)))
(assert (= "f" (CharAt var35 89)))
(assert (= "q" (CharAt var42 178)))
(assert (= "," (CharAt var0 917)))
(assert (= "w" (CharAt var31 114)))
(assert (= "{" (CharAt var45 642)))
(assert (= "A" (CharAt var23 561)))
(assert (= ">" (CharAt var27 279)))
(assert (= "a" (CharAt var1 105)))
(assert (= "&" (CharAt var52 712)))
(assert (= "}" (CharAt var2 20)))
(assert (= "!" (CharAt var22 950)))
(assert (= "1" (CharAt var26 995)))
(assert (= "D" (CharAt var52 583)))
(assert (= "5" (CharAt var36 459)))
(assert (= "h" (CharAt var35 701)))
(assert (= "O" (CharAt var33 934)))
(assert (= "v" (CharAt var31 7)))
(assert (= "%" (CharAt var47 504)))
(assert (= "p" (CharAt var48 243)))
(assert (= "R" (CharAt var21 695)))
(assert (= "\"" (CharAt var21 47)))
(assert (= "[" (CharAt var54 191)))
(assert (= "t" (CharAt var30 793)))
(assert (= "3" (CharAt var29 334)))
(assert (= "{" (CharAt var49 850)))
(assert (= "9" (CharAt var6 188)))
(assert (= "c" (CharAt var30 22)))
(assert (= "o" (CharAt var26 578)))
(assert (= "H" (CharAt var54 385)))
(assert (= "l" (CharAt var3 80)))
(assert (= "p" (CharAt var15 563)))
(assert (= "0" (CharAt var15 293)))
(assert (= "X" (CharAt var15 281)))
(assert (= "o" (CharAt var49 22)))
(assert (= "+" (CharAt var18 353)))
(assert (= "k" (CharAt var59 57)))
(assert (= "T" (CharAt var19 209)))
(assert (= "C" (CharAt var31 111)))
(assert (= "p" (CharAt var19 193)))
(assert (= "N" (CharAt var57 884)))
(assert (= "Y" (CharAt var6 521)))
(assert (= "5" (CharAt var8 259)))
(assert (= "7" (CharAt var11 263)))
(assert (= ">" (CharAt var48 613)))
(assert (= "?" (CharAt var40 915)))
(assert (= "<" (CharAt var13 313)))
(assert (= "[" (CharAt var11 16)))
(assert (= "h" (CharAt var16 801)))
(assert (= "'" (CharAt var34 245)))
(assert (= "0" (CharAt var14 423)))
(assert (= "#" (CharAt var45 88)))
(assert (= "i" (CharAt var31 982)))
(assert (= "c" (CharAt var13 482)))
(assert (= "=" (CharAt var31 1)))
(assert (= "|" (CharAt var47 974)))
(assert (= "." (CharAt var8 364)))
(assert (= "O" (CharAt var26 957)))
(assert (= "q" (CharAt var0 199)))
(assert (= "Y" (CharAt var52 436)))
(assert (= "G" (CharAt var52 695)))
(assert (= "+" (CharAt var20 507)))
(assert (= "6" (CharAt var15 353)))
(assert (= "c" (CharAt var6 902)))
(assert (= "X" (CharAt var54 670)))
(assert (= "u" (CharAt var42 79)))
(assert (= "?" (CharAt var24 415)))
(assert (= "x" (CharAt var37 976)))
(assert (= "$" (CharAt var33 814)))
(assert (= "K" (CharAt var32 242)))
(assert (= "&" (CharAt var59 465)))
(assert (= "J" (CharAt var11 550)))
(assert (= "_" (CharAt var42 885)))
(assert (= "/" (CharAt var18 243)))
(assert (= "8" (CharAt var56 754)))
(assert (= "~" (CharAt var19 924)))
(assert (= ":" (CharAt var28 96)))
(assert (= "6" (CharAt var39 544)))
(assert (= "b" (CharAt var32 876)))
(assert (= "8" (CharAt var33 523)))
(assert (= "W" (CharAt var30 846)))
(assert (= "r" (CharAt var11 121)))
(assert (= "/" (CharAt var29 966)))
(assert (= "z" (CharAt var55 980)))
(assert (= "#" (CharAt var15 856)))
(assert (= "d" (CharAt var6 434)))
(assert (= "G" (CharAt var9 293)))
(assert (= "^" (CharAt var5 680)))
(assert (= "." (CharAt var4 378)))
(assert (= "g" (CharAt var7 228)))
(assert (= "{" (CharAt var4 920)))
(assert (= "f" (CharAt var22 514)))
(assert (= "Y" (CharAt var21 414)))
(assert (= "v" (CharAt var20 461)))
(assert (= "-" (CharAt var4 959)))
(assert (= "[" (CharAt var8 760)))
(assert (= "c" (CharAt var33 545)))
(assert (= "`" (CharAt var51 769)))
(assert (= "y" (CharAt var59 368)))
(assert (= "d" (CharAt var2 243)))
(assert (= "~" (CharAt var39 39)))
(assert (= "1" (CharAt var60 280)))
(assert (= "^" (CharAt var40 265)))
(assert (= "M" (CharAt var36 67)))
(assert (= "C" (CharAt var0 570)))
(assert (= "Y" (CharAt var58 286)))
(assert (= "N" (CharAt var50 461)))
(assert (= "+" (CharAt var2 748)))
(assert (= "-" (CharAt var16 766)))
(assert (= "U" (CharAt var31 290)))
(assert (= "6" (CharAt var10 861)))
(assert (= "C" (CharAt var20 688)))
(assert (= "/" (CharAt var41 386)))
(assert (= "(" (CharAt var22 562)))
(assert (= "6" (CharAt var1 334)))
(assert (= "." (CharAt var12 751)))
(assert (= "A" (CharAt var45 512)))
(assert (= "P" (CharAt var50 85)))
(assert (= "z" (CharAt var30 267)))
(assert (= "k" (CharAt var1 637)))
(assert (= "z" (CharAt var49 546)))
(assert (= "/" (CharAt var46 798)))
(assert (= "7" (CharAt var6 963)))
(assert (= "~" (CharAt var33 290)))
(assert (= "J" (CharAt var58 876)))
(assert (= "G" (CharAt var22 86)))
(assert (= "l" (CharAt var34 285)))
(assert (= "j" (CharAt var5 488)))
(assert (= "<" (CharAt var54 854)))
(assert (= "D" (CharAt var42 766)))
(assert (= "\"" (CharAt var26 915)))
(assert (= "q" (CharAt var25 728)))
(assert (= "*" (CharAt var13 772)))
(assert (= "[" (CharAt var29 674)))
(assert (= "$" (CharAt var13 4)))
(assert (= "\"" (CharAt var52 854)))
(assert (= "W" (CharAt var6 922)))
(assert (= "'" (CharAt var52 364)))
(assert (= "O" (CharAt var30 430)))
(assert (= ">" (CharAt var34 968)))
(assert (= "i" (CharAt var39 40)))
(assert (= "H" (CharAt var53 903)))
(assert (= "Z" (CharAt var1 432)))
(assert (= "S" (CharAt var53 581)))
(assert (= "V" (CharAt var22 727)))
(assert (= "7" (CharAt var18 106)))
(assert (= "^" (CharAt var59 867)))
(assert (= "k" (CharAt var27 397)))
(assert (= "`" (CharAt var47 276)))
(assert (= "t" (CharAt var9 326)))
(assert (= "a" (CharAt var20 945)))
(assert (= "4" (CharAt var4 674)))
(assert (= "&" (CharAt var54 356)))
(assert (= "f" (CharAt var29 611)))
(assert (= "X" (CharAt var42 584)))
(assert (= "K" (CharAt var18 287)))
(assert (= "7" (CharAt var30 288)))
(assert (= "?" (CharAt var22 882)))
(assert (= "t" (CharAt var49 826)))
(assert (= "0" (CharAt var8 995)))
(assert (= "\\" (CharAt var5 628)))
(assert (= "6" (CharAt var9 793)))
(assert (= "8" (CharAt var43 683)))
(assert (= "N" (CharAt var28 446)))
(assert (= "W" (CharAt var5 891)))
(assert (= "O" (CharAt var11 436)))
(assert (= "s" (CharAt var47 374)))
(assert (= "#" (CharAt var25 651)))
(assert (= "]" (CharAt var41 670)))
(assert (= "<" (CharAt var35 734)))
(assert (= "+" (CharAt var13 953)))
(assert (= "t" (CharAt var18 463)))
(assert (= "-" (CharAt var23 805)))
(assert (= "B" (CharAt var35 283)))
(assert (= "|" (CharAt var16 354)))
(assert (= "G" (CharAt var51 112)))
(assert (= "2" (CharAt var14 654)))
(assert (= "D" (CharAt var49 685)))
(assert (= "T" (CharAt var45 247)))
(assert (= ">" (CharAt var7 716)))
(assert (= "X" (CharAt var5 139)))
(assert (= "[" (CharAt var59 81)))
(assert (= "Z" (CharAt var30 367)))
(assert (= "C" (CharAt var41 230)))
(assert (= "W" (CharAt var9 833)))
(assert (= "_" (CharAt var25 689)))
(assert (= "I" (CharAt var31 57)))
(assert (= "9" (CharAt var32 644)))
(assert (= "E" (CharAt var41 83)))
(assert (= "&" (CharAt var42 880)))
(assert (= "k" (CharAt var2 731)))
(assert (= "C" (CharAt var12 27)))
(assert (= "V" (CharAt var37 31)))
(assert (= "K" (CharAt var26 320)))
(assert (= "K" (CharAt var10 130)))
(assert (= "6" (CharAt var4 854)))
(assert (= "O" (CharAt var56 904)))
(assert (= "&" (CharAt var14 65)))
(assert (= "f" (CharAt var26 226)))
(assert (= "O" (CharAt var44 880)))
(assert (= ">" (CharAt var10 413)))
(assert (= "3" (CharAt var34 840)))
(assert (= "O" (CharAt var36 167)))
(assert (= "?" (CharAt var23 488)))
(assert (= "Y" (CharAt var0 248)))
(assert (= "M" (CharAt var22 66)))
(assert (= "<" (CharAt var27 170)))
(assert (= "K" (CharAt var13 389)))
(assert (= "%" (CharAt var22 782)))
(assert (= "O" (CharAt var14 246)))
(assert (= "M" (CharAt var31 244)))
(assert (= "z" (CharAt var43 121)))
(assert (= "T" (CharAt var18 85)))
(assert (= "m" (CharAt var49 452)))
(assert (= "V" (CharAt var20 419)))
(assert (= "x" (CharAt var24 52)))
(assert (= "+" (CharAt var5 973)))
(assert (= "S" (CharAt var16 78)))
(assert (= "b" (CharAt var10 180)))
(assert (= "6" (CharAt var32 278)))
(assert (= "(" (CharAt var4 464)))
(assert (= "a" (CharAt var18 55)))
(assert (= "A" (CharAt var4 118)))
(assert (= ":" (CharAt var43 877)))
(assert (= "|" (CharAt var60 551)))
(assert (= "Z" (CharAt var36 102)))
(assert (= "`" (CharAt var34 229)))
(assert (= "o" (CharAt var51 288)))
(assert (= "M" (CharAt var22 68)))
(assert (= "<" (CharAt var27 627)))
(assert (= "^" (CharAt var59 736)))
(assert (= "(" (CharAt var38 622)))
(assert (= "c" (CharAt var54 513)))
(assert (= "!" (CharAt var44 946)))
(assert (= ">" (CharAt var22 865)))
(assert (= "$" (CharAt var43 946)))
(assert (= "P" (CharAt var31 850)))
(assert (= "A" (CharAt var51 350)))
(assert (= ")" (CharAt var49 538)))
(assert (= "J" (CharAt var43 161)))
(assert (= "w" (CharAt var33 742)))
(assert (= "A" (CharAt var22 660)))
(assert (= "y" (CharAt var44 261)))
(assert (= "_" (CharAt var16 133)))
(assert (= "u" (CharAt var45 267)))
(assert (= "r" (CharAt var52 571)))
(assert (= "l" (CharAt var8 827)))
(assert (= "4" (CharAt var49 99)))
(assert (= "J" (CharAt var20 381)))
(assert (= "=" (CharAt var2 817)))
(assert (= "2" (CharAt var23 894)))
(assert (= "T" (CharAt var47 201)))
(assert (= "Y" (CharAt var21 482)))
(assert (= "]" (CharAt var46 446)))
(assert (= "g" (CharAt var55 797)))
(assert (= "*" (CharAt var10 997)))
(assert (= "7" (CharAt var18 538)))
(assert (= "j" (CharAt var4 120)))
(assert (= "B" (CharAt var25 166)))
(assert (= "y" (CharAt var12 32)))
(assert (= "#" (CharAt var2 426)))
(assert (= "n" (CharAt var34 203)))
(assert (= "B" (CharAt var19 978)))
(assert (= "X" (CharAt var55 132)))
(assert (= "S" (CharAt var39 505)))
(assert (= "i" (CharAt var44 730)))
(assert (= "G" (CharAt var24 87)))
(assert (= "p" (CharAt var42 356)))
(assert (= "D" (CharAt var16 640)))
(assert (= ">" (CharAt var43 264)))
(assert (= "f" (CharAt var47 323)))
(assert (= "8" (CharAt var29 900)))
(assert (= "*" (CharAt var60 842)))
(assert (= "^" (CharAt var45 920)))
(assert (= "w" (CharAt var25 18)))
(assert (= "@" (CharAt var28 869)))
(assert (= "M" (CharAt var9 763)))
(assert (= "}" (CharAt var19 38)))
(assert (= "`" (CharAt var25 707)))
(assert (= "h" (CharAt var6 760)))
(assert (= "t" (CharAt var60 461)))
(assert (= "7" (CharAt var30 652)))
(assert (= "j" (CharAt var12 600)))
(assert (= "7" (CharAt var20 674)))
(assert (= "P" (CharAt var8 533)))
(assert (= "9" (CharAt var24 647)))
(assert (= "x" (CharAt var43 105)))
(assert (= ">" (CharAt var38 240)))
(assert (= "*" (CharAt var45 521)))
(assert (= "." (CharAt var4 860)))
(assert (= "p" (CharAt var4 630)))
(assert (= ";" (CharAt var43 567)))
(assert (= "2" (CharAt var17 258)))
(assert (= "C" (CharAt var27 180)))
(assert (= ";" (CharAt var8 273)))
(assert (= "9" (CharAt var33 480)))
(assert (= "k" (CharAt var25 212)))
(assert (= "r" (CharAt var0 658)))
(assert (= "K" (CharAt var44 448)))
(assert (= "(" (CharAt var6 17)))
(assert (= "%" (CharAt var29 78)))
(assert (= "-" (CharAt var14 325)))
(assert (= "}" (CharAt var50 762)))
(assert (= "G" (CharAt var20 334)))
(assert (= "?" (CharAt var13 565)))
(assert (= "w" (CharAt var20 63)))
(assert (= "$" (CharAt var8 184)))
(assert (= "Q" (CharAt var43 402)))
(assert (= "b" (CharAt var13 327)))
(assert (= "}" (CharAt var36 166)))
(assert (= "k" (CharAt var56 915)))
(assert (= "J" (CharAt var38 653)))
(assert (= "4" (CharAt var55 716)))
(assert (= "v" (CharAt var5 81)))
(assert (= "?" (CharAt var6 903)))
(assert (= ")" (CharAt var23 140)))
(assert (= "5" (CharAt var24 565)))
(assert (= "u" (CharAt var49 364)))
(assert (= "x" (CharAt var1 679)))
(assert (= "G" (CharAt var35 920)))
(assert (= "." (CharAt var35 344)))
(assert (= "p" (CharAt var37 995)))
(assert (= "R" (CharAt var36 842)))
(assert (= "]" (CharAt var29 778)))
(assert (= "N" (CharAt var57 798)))
(assert (= "M" (CharAt var48 66)))
(assert (= "$" (CharAt var51 577)))
(assert (= "N" (CharAt var28 595)))
(assert (= "*" (CharAt var42 59)))
(assert (= "l" (CharAt var51 944)))
(assert (= "h" (CharAt var11 406)))
(assert (= "p" (CharAt var10 172)))
(assert (= "i" (CharAt var24 10)))
(assert (= "&" (CharAt var36 930)))
(assert (= "b" (CharAt var13 949)))
(assert (= "s" (CharAt var44 249)))
(assert (= "W" (CharAt var40 651)))
(assert (= "g" (CharAt var51 829)))
(assert (= "b" (CharAt var38 575)))
(assert (= "}" (CharAt var9 800)))
(assert (= "n" (CharAt var19 694)))
(assert (= "J" (CharAt var2 911)))
(assert (= "!" (CharAt var45 261)))
(assert (= "&" (CharAt var42 849)))
(assert (= "q" (CharAt var15 89)))
(assert (= "d" (CharAt var7 216)))
(assert (= "-" (CharAt var14 351)))
(assert (= "J" (CharAt var19 259)))
(assert (= "P" (CharAt var27 31)))
(assert (= "S" (CharAt var55 818)))
(assert (= "/" (CharAt var44 646)))
(assert (= "s" (CharAt var7 777)))
(assert (= "i" (CharAt var16 528)))
(assert (= "c" (CharAt var27 676)))
(assert (= "a" (CharAt var43 766)))
(assert (= "*" (CharAt var5 305)))
(assert (= "B" (CharAt var23 583)))
(assert (= "@" (CharAt var46 948)))
(assert (= "d" (CharAt var41 721)))
(assert (= "#" (CharAt var39 856)))
(assert (= "r" (CharAt var17 670)))
(assert (= "s" (CharAt var16 937)))
(assert (= ">" (CharAt var47 465)))
(assert (= "{" (CharAt var15 110)))
(assert (= "9" (CharAt var21 383)))
(assert (= "," (CharAt var32 885)))
(assert (= "l" (CharAt var2 429)))
(assert (= "A" (CharAt var55 326)))
(assert (= "~" (CharAt var47 196)))
(assert (= "2" (CharAt var3 639)))
(assert (= "p" (CharAt var20 983)))
(assert (= "W" (CharAt var7 231)))
(assert (= "|" (CharAt var24 758)))
(assert (= "<" (CharAt var19 490)))
(assert (= "3" (CharAt var24 638)))
(assert (= "u" (CharAt var42 640)))
(assert (= "," (CharAt var18 314)))
(assert (= "F" (CharAt var15 898)))
(assert (= ")" (CharAt var59 114)))
(assert (= "z" (CharAt var24 490)))
(assert (= "3" (CharAt var58 194)))
(assert (= "S" (CharAt var3 694)))
(assert (= "j" (CharAt var34 716)))
(assert (= "T" (CharAt var44 35)))
(assert (= "d" (CharAt var8 918)))
(assert (= "d" (CharAt var20 611)))
(assert (= ":" (CharAt var23 331)))
(assert (= "z" (CharAt var39 831)))
(assert (= "L" (CharAt var13 279)))
(assert (= "1" (CharAt var11 919)))
(assert (= ")" (CharAt var53 336)))
(assert (= "B" (CharAt var19 482)))
(assert (= "F" (CharAt var13 416)))
(assert (= "\\" (CharAt var15 672)))
(assert (= "!" (CharAt var8 45)))
(assert (= "k" (CharAt var33 172)))
(assert (= "H" (CharAt var0 630)))
(assert (= "M" (CharAt var24 663)))
(assert (= "T" (CharAt var21 114)))
(assert (= "g" (CharAt var31 94)))
(assert (= "6" (CharAt var36 127)))
(assert (= "f" (CharAt var41 327)))
(assert (= "X" (CharAt var15 748)))
(assert (= "<" (CharAt var54 154)))
(assert (= "d" (CharAt var1 927)))
(assert (= "o" (CharAt var22 984)))
(assert (= "O" (CharAt var9 784)))
(assert (= "V" (CharAt var40 343)))
(assert (= "9" (CharAt var11 408)))
(assert (= "(" (CharAt var40 717)))
(assert (= "9" (CharAt var13 519)))
(assert (= "i" (CharAt var0 909)))
(assert (= "|" (CharAt var3 565)))
(assert (= "!" (CharAt var3 497)))
(assert (= "*" (CharAt var30 271)))
(assert (= "{" (CharAt var40 550)))
(assert (= "M" (CharAt var23 302)))
(assert (= "G" (CharAt var59 345)))
(assert (= "l" (CharAt var16 141)))
(assert (= "(" (CharAt var60 595)))
(assert (= "C" (CharAt var42 182)))
(assert (= "r" (CharAt var28 265)))
(assert (= "r" (CharAt var52 42)))
(assert (= "." (CharAt var4 609)))
(assert (= "P" (CharAt var37 624)))
(assert (= "m" (CharAt var9 437)))
(assert (= "I" (CharAt var19 278)))
(assert (= "`" (CharAt var21 727)))
(assert (= "w" (CharAt var32 384)))
(assert (= "[" (CharAt var35 443)))
(assert (= "P" (CharAt var9 227)))
(assert (= "*" (CharAt var41 966)))
(assert (= "O" (CharAt var58 187)))
(assert (= "+" (CharAt var9 702)))
(assert (= "b" (CharAt var35 163)))
(assert (= "}" (CharAt var31 643)))
(assert (= "q" (CharAt var10 781)))
(assert (= "2" (CharAt var31 633)))
(assert (= "e" (CharAt var11 786)))
(assert (= "$" (CharAt var38 918)))
(assert (= "(" (CharAt var14 768)))
(assert (= "I" (CharAt var10 689)))
(assert (= "L" (CharAt var8 848)))
(assert (= "W" (CharAt var1 204)))
(assert (= ":" (CharAt var19 917)))
(assert (= "Z" (CharAt var11 393)))
(assert (= "{" (CharAt var24 547)))
(assert (= "[" (CharAt var54 165)))
(assert (= "?" (CharAt var49 264)))
(assert (= "H" (CharAt var1 862)))
(assert (= "B" (CharAt var27 755)))
(assert (= "m" (CharAt var55 278)))
(assert (= "?" (CharAt var53 740)))
(assert (= "0" (CharAt var58 487)))
(assert (= "h" (CharAt var16 687)))
(assert (= "D" (CharAt var23 96)))
(assert (= "6" (CharAt var29 985)))
(assert (= "e" (CharAt var33 658)))
(assert (= "b" (CharAt var18 828)))
(assert (= "\"" (CharAt var8 644)))
(assert (= ":" (CharAt var29 459)))
(assert (= "U" (CharAt var12 92)))
(assert (= ">" (CharAt var45 230)))
(assert (= "'" (CharAt var36 797)))
(assert (= "b" (CharAt var9 771)))
(assert (= "r" (CharAt var13 817)))
(assert (= "1" (CharAt var5 433)))
(assert (= "V" (CharAt var2 145)))
(assert (= "r" (CharAt var31 461)))
(assert (= "$" (CharAt var35 714)))
(assert (= "q" (CharAt var13 83)))
(assert (= "," (CharAt var1 8)))
(assert (= "X" (CharAt var48 315)))
(assert (= "{" (CharAt var40 368)))
(assert (= "{" (CharAt var2 996)))
(assert (= "-" (CharAt var60 779)))
(assert (= "&" (CharAt var44 924)))
(assert (= "/" (CharAt var11 606)))
(assert (= "U" (CharAt var16 979)))
(assert (= "`" (CharAt var59 944)))
(assert (= "|" (CharAt var51 968)))
(assert (= "," (CharAt var52 59)))
(assert (= "I" (CharAt var3 327)))
(assert (= "r" (CharAt var4 304)))
(assert (= "4" (CharAt var60 8)))
(assert (= "R" (CharAt var30 700)))
(assert (= "\"" (CharAt var55 745)))
(assert (= "6" (CharAt var41 848)))
(assert (= "a" (CharAt var47 458)))
(assert (= "(" (CharAt var32 938)))
(assert (= "T" (CharAt var19 983)))
(assert (= "x" (CharAt var10 204)))
(assert (= "D" (CharAt var33 671)))
(assert (= "=" (CharAt var38 568)))
(assert (= "K" (CharAt var16 208)))
(assert (= "R" (CharAt var15 523)))
(assert (= "k" (CharAt var51 222)))
(assert (= "F" (CharAt var47 685)))
(assert (= "!" (CharAt var47 658)))
(assert (= "k" (CharAt var14 673)))
(assert (= "R" (CharAt var49 790)))
(assert (= "-" (CharAt var36 537)))
(assert (= "]" (CharAt var21 914)))
(assert (= "." (CharAt var9 262)))
(assert (= "y" (CharAt var28 155)))
(assert (= "^" (CharAt var17 915)))
(assert (= "4" (CharAt var3 201)))
(assert (= "?" (CharAt var56 617)))
(assert (= "S" (CharAt var11 347)))
(assert (= "]" (CharAt var2 851)))
(assert (= "'" (CharAt var37 967)))
(assert (= "H" (CharAt var38 508)))
(assert (= "1" (CharAt var57 906)))
(assert (= "p" (CharAt var18 963)))
(assert (= "h" (CharAt var15 723)))
(assert (= "e" (CharAt var27 21)))
(assert (= "#" (CharAt var29 471)))
(assert (= "p" (CharAt var22 890)))
(assert (= "a" (CharAt var29 301)))
(assert (= "D" (CharAt var54 373)))
(assert (= "d" (CharAt var28 979)))
(assert (= "1" (CharAt var46 688)))
(assert (= "1" (CharAt var5 816)))
(assert (= "y" (CharAt var23 757)))
(assert (= "K" (CharAt var23 795)))
(assert (= "1" (CharAt var50 214)))
(assert (= "'" (CharAt var47 526)))
(assert (= "#" (CharAt var0 700)))
(assert (= "9" (CharAt var20 45)))
(assert (= "C" (CharAt var42 834)))
(assert (= "J" (CharAt var26 892)))
(assert (= "," (CharAt var31 694)))
(assert (= "a" (CharAt var14 610)))
(assert (= "Y" (CharAt var17 809)))
(assert (= "/" (CharAt var33 996)))
(assert (= "n" (CharAt var49 764)))
(assert (= "l" (CharAt var3 39)))
(assert (= "P" (CharAt var3 465)))
(assert (= "I" (CharAt var16 593)))
(assert (= "2" (CharAt var47 182)))
(assert (= "B" (CharAt var8 27)))
(assert (= "]" (CharAt var1 548)))
(assert (= "q" (CharAt var27 926)))
(assert (= "v" (CharAt var46 949)))
(assert (= "i" (CharAt var39 442)))
(assert (= "V" (CharAt var22 141)))
(assert (= "|" (CharAt var27 159)))
(assert (= "z" (CharAt var29 881)))
(assert (= "3" (CharAt var4 382)))
(assert (= "%" (CharAt var29 415)))
(assert (= "5" (CharAt var2 870)))
(assert (= "/" (CharAt var51 289)))
(assert (= "\"" (CharAt var14 527)))
(assert (= ">" (CharAt var7 868)))
(assert (= "q" (CharAt var51 569)))
(assert (= ";" (CharAt var23 443)))
(assert (= "5" (CharAt var51 34)))
(assert (= "U" (CharAt var24 454)))
(assert (= "H" (CharAt var3 846)))
(assert (= "H" (CharAt var39 752)))
(assert (= "~" (CharAt var9 353)))
(assert (= "e" (CharAt var0 665)))
(assert (= "l" (CharAt var32 268)))
(assert (= "n" (CharAt var45 208)))
(assert (= "S" (CharAt var29 341)))
(assert (= "R" (CharAt var60 48)))
(assert (= "?" (CharAt var8 121)))
(assert (= "s" (CharAt var57 720)))
(assert (= "F" (CharAt var10 939)))
(assert (= "I" (CharAt var22 501)))
(assert (= "&" (CharAt var30 365)))
(assert (= "W" (CharAt var15 977)))
(assert (= "&" (CharAt var60 506)))
(assert (= "a" (CharAt var44 291)))
(assert (= "\"" (CharAt var9 311)))
(assert (= "Y" (CharAt var19 927)))
(assert (= "0" (CharAt var58 247)))
(assert (= "N" (CharAt var50 975)))
(assert (= "1" (CharAt var46 391)))
(assert (= "9" (CharAt var59 652)))
(assert (= "d" (CharAt var21 240)))
(assert (= "g" (CharAt var43 711)))
(assert (= "h" (CharAt var2 925)))
(assert (= "^" (CharAt var17 202)))
(assert (= "A" (CharAt var58 983)))
(assert (= "i" (CharAt var13 374)))
(assert (= "o" (CharAt var8 755)))
(assert (= "\\" (CharAt var11 154)))
(assert (= "k" (CharAt var0 166)))
(assert (= "Y" (CharAt var25 612)))
(assert (= ":" (CharAt var23 64)))
(assert (= "q" (CharAt var28 892)))
(assert (= "L" (CharAt var31 855)))
(assert (= "^" (CharAt var37 951)))
(assert (= "@" (CharAt var56 397)))
(assert (= ";" (CharAt var43 691)))
(assert (= "@" (CharAt var32 390)))
(assert (= "y" (CharAt var33 61)))
(assert (= "'" (CharAt var34 862)))
(assert (= "{" (CharAt var22 119)))
(assert (= "+" (CharAt var39 973)))
(assert (= "z" (CharAt var33 150)))
(assert (= "~" (CharAt var2 379)))
(assert (= "9" (CharAt var33 987)))
(assert (= "L" (CharAt var0 782)))
(assert (= "9" (CharAt var27 657)))
(assert (= "H" (CharAt var16 341)))
(assert (= "%" (CharAt var42 635)))
(assert (= "6" (CharAt var24 68)))
(assert (= "B" (CharAt var20 485)))
(assert (= "m" (CharAt var40 132)))
(assert (= "+" (CharAt var15 211)))
(assert (= "/" (CharAt var19 762)))
(assert (= "4" (CharAt var10 526)))
(assert (= "|" (CharAt var58 974)))
(assert (= "h" (CharAt var52 475)))
(assert (= "e" (CharAt var47 54)))
(assert (= "%" (CharAt var2 971)))
(assert (= "L" (CharAt var21 871)))
(assert (= "|" (CharAt var38 762)))
(assert (= "}" (CharAt var24 72)))
(assert (= "j" (CharAt var18 733)))
(assert (= "}" (CharAt var25 625)))
(assert (= "%" (CharAt var29 747)))
(assert (= "s" (CharAt var10 116)))
(assert (= "," (CharAt var5 217)))
(assert (= "_" (CharAt var60 398)))
(assert (= "/" (CharAt var28 339)))
(assert (= "7" (CharAt var40 622)))
(assert (= "l" (CharAt var60 183)))
(assert (= "G" (CharAt var40 567)))
(assert (= "q" (CharAt var16 773)))
(assert (= "^" (CharAt var16 735)))
(assert (= "]" (CharAt var26 724)))
(assert (= "`" (CharAt var35 72)))
(assert (= "-" (CharAt var37 276)))
(assert (= "-" (CharAt var20 629)))
(assert (= "Z" (CharAt var26 344)))
(assert (= "Y" (CharAt var13 445)))
(assert (= "D" (CharAt var27 866)))
(assert (= "W" (CharAt var41 453)))
(assert (= "|" (CharAt var6 780)))
(assert (= "v" (CharAt var1 662)))
(assert (= "$" (CharAt var39 823)))
(assert (= "-" (CharAt var52 386)))
(assert (= "F" (CharAt var12 375)))
(assert (= "}" (CharAt var37 274)))
(assert (= "C" (CharAt var53 707)))
(assert (= "M" (CharAt var18 537)))
(assert (= "." (CharAt var8 16)))
(assert (= "d" (CharAt var59 500)))
(assert (= "a" (CharAt var11 15)))
(assert (= "M" (CharAt var60 337)))
(assert (= "8" (CharAt var58 278)))
(assert (= "q" (CharAt var43 798)))
(assert (= "_" (CharAt var3 548)))
(assert (= "T" (CharAt var10 608)))
(assert (= "6" (CharAt var57 737)))
(assert (= "3" (CharAt var59 881)))
(assert (= "s" (CharAt var35 389)))
(assert (= "K" (CharAt var12 990)))
(assert (= "g" (CharAt var12 541)))
(assert (= "g" (CharAt var26 502)))
(assert (= "X" (CharAt var5 541)))
(assert (= "\\" (CharAt var20 254)))
(assert (= "[" (CharAt var50 303)))
(assert (= "D" (CharAt var7 173)))
(assert (= ";" (CharAt var54 357)))
(assert (= "G" (CharAt var23 739)))
(assert (= "Q" (CharAt var60 223)))
(assert (= "e" (CharAt var32 707)))
(assert (= "^" (CharAt var4 369)))
(assert (= "m" (CharAt var3 937)))
(assert (= "~" (CharAt var51 78)))
(assert (= "D" (CharAt var26 385)))
(assert (= "|" (CharAt var53 462)))
(assert (= "0" (CharAt var49 27)))
(assert (= ">" (CharAt var59 156)))
(assert (= "Q" (CharAt var52 633)))
(assert (= "O" (CharAt var33 984)))
(assert (= "e" (CharAt var56 760)))
(assert (= "n" (CharAt var48 640)))
(assert (= "!" (CharAt var5 855)))
(assert (= "L" (CharAt var16 389)))
(assert (= "~" (CharAt var50 58)))
(assert (= "8" (CharAt var31 387)))
(assert (= "m" (CharAt var18 879)))
(assert (= "r" (CharAt var28 442)))
(assert (= "l" (CharAt var40 787)))
(assert (= "A" (CharAt var39 639)))
(assert (= "J" (CharAt var4 98)))
(assert (= "9" (CharAt var50 591)))
(assert (= "^" (CharAt var25 129)))
(assert (= "^" (CharAt var59 50)))
(assert (= "R" (CharAt var4 737)))
(assert (= "v" (CharAt var2 267)))
(assert (= "!" (CharAt var7 555)))
(assert (= "\\" (CharAt var54 410)))
(assert (= "k" (CharAt var16 397)))
(assert (= "R" (CharAt var10 788)))
(assert (= "S" (CharAt var59 900)))
(assert (= "P" (CharAt var49 196)))
(assert (= "9" (CharAt var56 539)))
(assert (= "[" (CharAt var9 67)))
(assert (= "O" (CharAt var42 341)))
(assert (= "3" (CharAt var12 196)))
(assert (= "k" (CharAt var57 685)))
(assert (= "[" (CharAt var47 860)))
(assert (= "D" (CharAt var6 296)))
(assert (= "{" (CharAt var40 205)))
(assert (= "." (CharAt var10 611)))
(assert (= "\"" (CharAt var46 562)))
(assert (= "Y" (CharAt var36 724)))
(assert (= "<" (CharAt var7 330)))
(assert (= "o" (CharAt var1 55)))
(assert (= "w" (CharAt var36 161)))
(assert (= "[" (CharAt var0 253)))
(assert (= "4" (CharAt var47 970)))
(assert (= "s" (CharAt var23 412)))
(assert (= "#" (CharAt var19 203)))
(assert (= "3" (CharAt var50 714)))
(assert (= "a" (CharAt var41 189)))
(assert (= ">" (CharAt var43 469)))
(assert (= "S" (CharAt var19 658)))
(check-sat)